n_res = 3;
rcap = [27, 97, 98];
rtype = [1, 2, 2];
n_tasks = 16;
modes = [ {1, 2, 3}, {4, 5, 6}, {7, 8, 9}, {10, 11, 12}, {13, 14, 15}, {16, 17, 18}, {19, 20, 21}, {22, 23, 24}, {25, 26, 27}, {28, 29, 30}, {31, 32, 33}, {34, 35, 36}, {37, 38, 39}, {40, 41, 42}, {43, 44, 45}, {46, 47, 48} ];
succ = [ {4, 6, 10}, {5, 14, 15}, {6, 8, 11}, {5, 7}, {13}, {7}, {9, 13, 15}, {9, 12}, {14, 16}, {12, 15, 16}, {12, 13}, {14}, {16}, {}, {}, {} ];
n_opt = 48;
dur = [2, 5, 9, 6, 8, 9, 3, 5, 8, 1, 6, 6, 2, 5, 9, 1, 5, 7, 3, 10, 10, 4, 7, 9, 9, 9, 10, 3, 7, 9, 1, 8, 10, 3, 6, 10, 4, 8, 9, 1, 2, 8, 2, 4, 5, 1, 1, 5];
rreq = [|  7,  6,  5,  9,  9,  8,  8,  6,  5, 10,  9,  8,  7,  7,  2,  6,  6,  6,  6,  2,  1,  6,  5,  5,  6,  7,  4,  3,  3,  3,  9,  8,  6,  7,  5,  5,  2,  1,  1,  8,  8,  5,  7,  7,  6,  7,  6,  3
        |  3,  3,  2,  7,  6,  5,  6,  5,  5,  8,  7,  8,  7,  5,  3,  5,  5,  4,  6,  2,  5,  9,  9,  7,  8,  6,  5, 10,  9,  8,  4,  4,  3,  6,  5,  5,  6,  5,  1,  6,  3,  2,  6,  5,  5,  8,  8,  7
        |  7,  7,  7,  4,  3,  3,  8,  7,  5,  8,  6,  6, 10,  6,  3,  4,  3,  2,  8,  8,  8,  8,  4,  1,  8,  8,  6,  6,  5,  4,  9,  9,  8,  2,  2,  1,  5,  3,  2,  6,  6,  5,  6,  6,  6,  6,  8,  4 |];
